NAME : XML100_3172_07
DIMENSION : 101
NB_CLUSTERS : 31
CLUSTERING_ALG : KMeans
CLUSTERING_PARAMS : k(33)
CLUSTERS
1 0
2 4 23 47 49 64
3 26 63 75
4 12 87
5 42 60
6 29 35 38
7 3 6 14 59 93
8 16 22 27 51 85
9 19 40 58 62 80 95
10 2 15 31 52 56
11 21 65 83
12 5 20 43 78 97
13 18 96 100
14 36 94
15 11 66 74
16 54 92
17 7 44 82
18 24 28 41 46 72 81 90 99
19 13 89
20 33 48
21 55 70 88 98
22 9 25
23 71 86
24 8 37 77
25 34 39 53 91
26 57 67 69 84
27 10 17 50
28 32 45
29 1 61 79
30 73 76
31 30 68
EOF